repeat = true;
colors = 1..8;

board = [|
1, 2, 3, 4, 5 |
1, 6, 2, 3, 7 |
1, 3, 6, 2, 8 |
5, 4, 8, 6, 2 |
4, 3, 1, 8, 7 |];

black_pins = [1, 1, 0, 1, 2];
white_pins = [2, 2, 2, 1, 2];

% secret = [5, 1, 3, 8, 7];